c generated by sgen1
c Command: ./sgen1 -unsat -n 17 
p cnf 17 44
-2 -3 -4 0
-1 -3 -4 0
-1 -2 -4 0
-1 -2 -3 0
-6 -7 -8 0
-5 -7 -8 0
-5 -6 -8 0
-5 -6 -7 0
-10 -11 -12 0
-9 -11 -12 0
-9 -10 -12 0
-9 -10 -11 0
-13 -14 -15  0
-13 -14 -16  0
-13 -14 -17  0
-13 -15 -16  0
-13 -15 -17  0
-13 -16 -17  0
-14 -15 -16  0
-14 -15 -17  0
-14 -16 -17  0
-15 -16 -17  0
14 10 5 0
4 10 5 0
4 14 5 0
4 14 10 0
12 1 16 0
6 1 16 0
6 12 16 0
6 12 1 0
11 7 15 0
3 7 15 0
3 11 15 0
3 11 7 0
8 2 13  0
8 2 17  0
8 2 9  0
8 13 17  0
8 13 9  0
8 17 9  0
2 13 17  0
2 13 9  0
2 17 9  0
13 17 9  0
